[VALIDATOR STDOUT]
Type-checking move
...action passes type checking.
Type-checking pick
...action passes type checking.
Type-checking drop
...action passes type checking.
Checking plan: /home/jfan5/Safety-gen/runs/benchmark/optic/grippers_20260205_142606/grippers/optic_results/grippers-n2-r13-o11-s11001.plan
Plan to validate:

Plan size: 46
1:
(pick robot1 ball8 room7 lgripper1)
 
2:
(move robot2 room3 room9)
 
3:
(move robot1 room7 room5)
 
4:
(pick robot2 ball10 room9 lgripper2)
 
5:
(move robot2 room9 room4)
 
6:
(pick robot1 ball11 room5 rgripper1)
 
7:
(pick robot2 ball4 room4 rgripper2)
 
8:
(move robot1 room5 room8)
 
9:
(move robot2 room4 room7)
 
10:
(drop robot1 ball11 room8 rgripper1)
 
11:
(drop robot2 ball4 room7 rgripper2)
 
12:
(move robot1 room8 room6)
 
13:
(move robot2 room7 room11)
 
14:
(move robot1 room6 room12)
 
15:
(drop robot2 ball10 room11 lgripper2)
 
16:
(drop robot1 ball8 room12 lgripper1)
 
17:
(pick robot1 ball1 room12 rgripper1)
 
18:
(move robot1 room12 room2)
 
19:
(move robot2 room11 room6)
 
20:
(drop robot1 ball1 room2 rgripper1)
 
21:
(pick robot1 ball9 room2 lgripper1)
 
22:
(move robot2 room6 room13)
 
23:
(move robot1 room2 room13)
 
24:
(pick robot2 ball2 room13 lgripper2)
 
25:
(drop robot1 ball9 room13 lgripper1)
 
26:
(move robot2 room13 room6)
 
27:
(move robot1 room13 room6)
 
28:
(move robot2 room6 room11)
 
29:
(drop robot2 ball2 room11 lgripper2)
 
30:
(move robot1 room6 room10)
 
31:
(move robot2 room11 room6)
 
32:
(pick robot1 ball7 room10 lgripper1)
 
33:
(move robot1 room10 room11)
 
34:
(move robot2 room6 room10)
 
35:
(drop robot1 ball7 room11 lgripper1)
 
36:
(pick robot2 ball3 room10 lgripper2)
 
37:
(move robot2 room10 room1)
 
38:
(move robot1 room11 room6)
 
39:
(drop robot2 ball3 room1 lgripper2)
 
40:
(pick robot2 ball6 room1 rgripper2)
 
41:
(move robot1 room6 room1)
 
42:
(move robot2 room1 room10)
 
43:
(pick robot1 ball5 room1 lgripper1)
 
44:
(drop robot2 ball6 room10 rgripper2)
 
45:
(move robot1 room1 room6)
 
46:
(drop robot1 ball5 room6 lgripper1)
 

Plan Validation details
-----------------------

Checking next happening (time 1)
Deleting (at ball8 room7)
Deleting (free robot1 lgripper1)
Adding (carry robot1 ball8 lgripper1)

Checking next happening (time 2)
Deleting (at-robby robot2 room3)
Adding (at-robby robot2 room9)

Checking next happening (time 3)
Deleting (at-robby robot1 room7)
Adding (at-robby robot1 room5)

Checking next happening (time 4)
Deleting (at ball10 room9)
Deleting (free robot2 lgripper2)
Adding (carry robot2 ball10 lgripper2)

Checking next happening (time 5)
Deleting (at-robby robot2 room9)
Adding (at-robby robot2 room4)

Checking next happening (time 6)
Deleting (at ball11 room5)
Deleting (free robot1 rgripper1)
Adding (carry robot1 ball11 rgripper1)

Checking next happening (time 7)
Deleting (at ball4 room4)
Deleting (free robot2 rgripper2)
Adding (carry robot2 ball4 rgripper2)

Checking next happening (time 8)
Deleting (at-robby robot1 room5)
Adding (at-robby robot1 room8)

Checking next happening (time 9)
Deleting (at-robby robot2 room4)
Adding (at-robby robot2 room7)

Checking next happening (time 10)
Deleting (carry robot1 ball11 rgripper1)
Adding (at ball11 room8)
Adding (free robot1 rgripper1)

Checking next happening (time 11)
Deleting (carry robot2 ball4 rgripper2)
Adding (at ball4 room7)
Adding (free robot2 rgripper2)

Checking next happening (time 12)
Deleting (at-robby robot1 room8)
Adding (at-robby robot1 room6)

Checking next happening (time 13)
Deleting (at-robby robot2 room7)
Adding (at-robby robot2 room11)

Checking next happening (time 14)
Deleting (at-robby robot1 room6)
Adding (at-robby robot1 room12)

Checking next happening (time 15)
Deleting (carry robot2 ball10 lgripper2)
Adding (at ball10 room11)
Adding (free robot2 lgripper2)

Checking next happening (time 16)
Deleting (carry robot1 ball8 lgripper1)
Adding (at ball8 room12)
Adding (free robot1 lgripper1)

Checking next happening (time 17)
Deleting (at ball1 room12)
Deleting (free robot1 rgripper1)
Adding (carry robot1 ball1 rgripper1)

Checking next happening (time 18)
Deleting (at-robby robot1 room12)
Adding (at-robby robot1 room2)

Checking next happening (time 19)
Deleting (at-robby robot2 room11)
Adding (at-robby robot2 room6)

Checking next happening (time 20)
Deleting (carry robot1 ball1 rgripper1)
Adding (at ball1 room2)
Adding (free robot1 rgripper1)

Checking next happening (time 21)
Deleting (at ball9 room2)
Deleting (free robot1 lgripper1)
Adding (carry robot1 ball9 lgripper1)

Checking next happening (time 22)
Deleting (at-robby robot2 room6)
Adding (at-robby robot2 room13)

Checking next happening (time 23)
Deleting (at-robby robot1 room2)
Adding (at-robby robot1 room13)

Checking next happening (time 24)
Deleting (at ball2 room13)
Deleting (free robot2 lgripper2)
Adding (carry robot2 ball2 lgripper2)

Checking next happening (time 25)
Deleting (carry robot1 ball9 lgripper1)
Adding (at ball9 room13)
Adding (free robot1 lgripper1)

Checking next happening (time 26)
Deleting (at-robby robot2 room13)
Adding (at-robby robot2 room6)

Checking next happening (time 27)
Deleting (at-robby robot1 room13)
Adding (at-robby robot1 room6)

Checking next happening (time 28)
Deleting (at-robby robot2 room6)
Adding (at-robby robot2 room11)

Checking next happening (time 29)
Deleting (carry robot2 ball2 lgripper2)
Adding (at ball2 room11)
Adding (free robot2 lgripper2)

Checking next happening (time 30)
Deleting (at-robby robot1 room6)
Adding (at-robby robot1 room10)

Checking next happening (time 31)
Deleting (at-robby robot2 room11)
Adding (at-robby robot2 room6)

Checking next happening (time 32)
Deleting (at ball7 room10)
Deleting (free robot1 lgripper1)
Adding (carry robot1 ball7 lgripper1)

Checking next happening (time 33)
Deleting (at-robby robot1 room10)
Adding (at-robby robot1 room11)

Checking next happening (time 34)
Deleting (at-robby robot2 room6)
Adding (at-robby robot2 room10)

Checking next happening (time 35)
Deleting (carry robot1 ball7 lgripper1)
Adding (at ball7 room11)
Adding (free robot1 lgripper1)

Checking next happening (time 36)
Deleting (at ball3 room10)
Deleting (free robot2 lgripper2)
Adding (carry robot2 ball3 lgripper2)

Checking next happening (time 37)
Deleting (at-robby robot2 room10)
Adding (at-robby robot2 room1)

Checking next happening (time 38)
Deleting (at-robby robot1 room11)
Adding (at-robby robot1 room6)

Checking next happening (time 39)
Deleting (carry robot2 ball3 lgripper2)
Adding (at ball3 room1)
Adding (free robot2 lgripper2)

Checking next happening (time 40)
Deleting (at ball6 room1)
Deleting (free robot2 rgripper2)
Adding (carry robot2 ball6 rgripper2)

Checking next happening (time 41)
Deleting (at-robby robot1 room6)
Adding (at-robby robot1 room1)

Checking next happening (time 42)
Deleting (at-robby robot2 room1)
Adding (at-robby robot2 room10)

Checking next happening (time 43)
Deleting (at ball5 room1)
Deleting (free robot1 lgripper1)
Adding (carry robot1 ball5 lgripper1)

Checking next happening (time 44)
Deleting (carry robot2 ball6 rgripper2)
Adding (at ball6 room10)
Adding (free robot2 rgripper2)

Checking next happening (time 45)
Deleting (at-robby robot1 room1)
Adding (at-robby robot1 room6)

Checking next happening (time 46)
Deleting (carry robot1 ball5 lgripper1)
Adding (at ball5 room6)
Adding (free robot1 lgripper1)
Plan executed successfully - checking goal
Plan valid
Final value: 46 

Successful plans:
Value: 46
 /home/jfan5/Safety-gen/runs/benchmark/optic/grippers_20260205_142606/grippers/optic_results/grippers-n2-r13-o11-s11001.plan 46
